column=6;
row=6;
max=4;
left=[4, 0, 0, 4, 0, 0];
right=[3, 1, 0, 2, 4, 1];
top=[0, 2, 0, 1, 0, 0];
bottom=[0, 1, 0, 0, 0, 0];
Board=[|0,0,0,1,0,0|0,2,0,0,1,0|0,0,3,0,0,0|4,0,0,0,0,2|0,1,2,0,3,0|0,0,0,0,0,0|]